Solver command line: []

Read LP format model from file C:\Users\wlhlm\AppData\Local\Temp\tmp_ywfjneo.pyomo.lp
Reading time = 6.18 seconds
objective: 961824 rows, 869615 columns, 2156430 nonzeros
Set parameter TimeLimit to value 5000
Set parameter MIPGap to value 0.08
Gurobi Optimizer version 12.0.1 build v12.0.1rc0 (win64 - Windows 11.0 (26100.2))

CPU model: Intel(R) Core(TM) Ultra 7 258V, instruction set [SSE2|AVX|AVX2]
Thread count: 8 physical cores, 8 logical processors, using up to 8 threads

Non-default parameters:
TimeLimit  5000
MIPGap  0.08

Optimize a model with 961824 rows, 869615 columns and 2156430 nonzeros
Model fingerprint: 0x87ebfd3a
Model has 8783 quadratic constraints
Variable types: 746640 continuous, 122975 integer (105408 binary)
Coefficient statistics:
  Matrix range     [6e-03, 1e+03]
  QMatrix range    [1e+00, 1e+00]
  Objective range  [1e-02, 4e+02]
  Bounds range     [1e+00, 3e+00]
  RHS range        [1e-04, 1e+04]
Presolve removed 763982 rows and 645416 columns
Presolve time: 1.16s
Presolved: 197842 rows, 224199 columns, 621830 nonzeros
Variable types: 149513 continuous, 74686 integer (65902 binary)
Performing another presolve...
Presolve removed 70271 rows and 70271 columns (presolve time = 12s)...
Presolve removed 70271 rows and 70271 columns
Presolve time: 11.65s
Deterministic concurrent LP optimizer: primal and dual simplex
Showing primal log only...


Root simplex log...

Iteration    Objective       Primal Inf.    Dual Inf.      Time
       0    2.4832034e+07   6.946917e+07   6.900993e+13     15s
    4445    2.4394425e+07   1.198851e+07   1.641481e+13     17s
   13950    2.5260884e+07   4.923113e+06   4.213142e+12     20s
   31212    2.3046947e+07   1.061043e+05   1.143889e+11     25s
Concurrent spin time: 0.02s

Solved with dual simplex

Root simplex log...

Iteration    Objective       Primal Inf.    Dual Inf.      Time
   62771    1.2970660e+07   0.000000e+00   0.000000e+00     26s
Extra simplex iterations after uncrush: 1

Root relaxation: objective 1.297066e+07, 62771 iterations, 11.79 seconds (9.84 work units)
Total elapsed time = 26.05s (DegenMoves)

    Nodes    |    Current Node    |     Objective Bounds      |     Work
 Expl Unexpl |  Obj  Depth IntInf | Incumbent    BestBd   Gap | It/Node Time

     0     0 1.2971e+07    0  873          - 1.2971e+07      -     -   30s
     0     0 1.2976e+07    0  876          - 1.2976e+07      -     -   38s
     0     0 1.2976e+07    0  873          - 1.2976e+07      -     -   41s
     0     0 1.2976e+07    0  878          - 1.2976e+07      -     -   42s
     0     0 1.2976e+07    0  878          - 1.2976e+07      -     -   42s
     0     0 1.2976e+07    0  878          - 1.2976e+07      -     -   42s
     0     0 1.2979e+07    0  768          - 1.2979e+07      -     -   45s
     0     0 1.2979e+07    0  797          - 1.2979e+07      -     -   48s
     0     0 1.2979e+07    0  810          - 1.2979e+07      -     -   48s
     0     0 1.2979e+07    0  814          - 1.2979e+07      -     -   49s
     0     0 1.2979e+07    0  816          - 1.2979e+07      -     -   49s
     0     0 1.2979e+07    0  831          - 1.2979e+07      -     -   49s
     0     0 1.2979e+07    0  831          - 1.2979e+07      -     -   49s
     0     0 1.2980e+07    0  635          - 1.2980e+07      -     -   56s
     0     0 1.2980e+07    0  650          - 1.2980e+07      -     -   59s
     0     0 1.2980e+07    0  656          - 1.2980e+07      -     -   60s
     0     0 1.2980e+07    0  655          - 1.2980e+07      -     -   60s
     0     0 1.2980e+07    0  660          - 1.2980e+07      -     -   61s
     0     0 1.2980e+07    0  609          - 1.2980e+07      -     -   63s
     0     0 1.2980e+07    0  609          - 1.2980e+07      -     -   64s
     0     0 1.2980e+07    0  613          - 1.2980e+07      -     -   65s
     0     0 1.2980e+07    0  618          - 1.2980e+07      -     -   65s
     0     0 1.2980e+07    0  637          - 1.2980e+07      -     -   66s
     0     0 1.2980e+07    0  636          - 1.2980e+07      -     -   68s
     0     0 1.2980e+07    0  640          - 1.2980e+07      -     -   69s
     0     0 1.2980e+07    0  642          - 1.2980e+07      -     -   70s
     0     0 1.2980e+07    0  643          - 1.2980e+07      -     -   71s
     0     0 1.2980e+07    0  643          - 1.2980e+07      -     -   75s
     0     2 1.2980e+07    0  643          - 1.2980e+07      -     -   89s
     1     5 1.2980e+07    1  642          - 1.2980e+07      -   740   90s
    57    82 1.2980e+07    8  622          - 1.2980e+07      -  22.1   96s
   163   247 1.2980e+07   16  597          - 1.2980e+07      -  12.7  102s
   246   384 1.2980e+07   21  582          - 1.2980e+07      -  10.1  105s
   383   608 1.2980e+07   31  542          - 1.2980e+07      -   8.5  112s
   607   962 1.2980e+07   49  534          - 1.2980e+07      -   7.3  122s
   961  1642 1.2980e+07   80  534          - 1.2980e+07      -   7.0  137s
  1641  2402 1.2981e+07  125  532          - 1.2980e+07      -   6.5  150s
  2401  3083 1.2981e+07  209  509          - 1.2980e+07      -   6.3  163s
  3082  3716 1.2981e+07  268  494          - 1.2980e+07      -   5.9  174s
  3309  3716 1.2981e+07  276  495          - 1.2980e+07      -   5.9  175s
  3715  4154 1.2982e+07  330  490          - 1.2980e+07      -   5.7  183s
  4153  4631 1.2982e+07  373  475          - 1.2980e+07      -   5.8  194s
  4359  4631 1.2983e+07  377  474          - 1.2980e+07      -   5.8  195s
  4630  5227 1.2982e+07  429  477          - 1.2980e+07      -   5.6  205s
  5226  5788 1.2982e+07  484  474          - 1.2980e+07      -   5.4  214s
  5787  6165 1.2983e+07  525  461          - 1.2980e+07      -   5.3  223s
  6164  6632 1.2983e+07  559  455          - 1.2980e+07      -   5.4  232s
  6631  7079 1.2983e+07  600  428          - 1.2980e+07      -   5.4  240s
  7078  7658 1.2983e+07  643  356          - 1.2980e+07      -   5.5  251s
  7660  7660 1.2982e+07   36  863          - 1.2980e+07      -   5.4  286s
  7661  7661 1.2982e+07  104  816          - 1.2980e+07      -   5.4  294s
  7662  7662 1.2983e+07  623  620          - 1.2980e+07      -   5.4  296s
  7667  7665 1.2983e+07  546  606          - 1.2980e+07      -   5.4  302s
  7668  7666 1.2981e+07   95  565          - 1.2980e+07      -   5.4  305s
  7673  7669 1.2984e+07  630  547          - 1.2981e+07      -   5.4  311s
  7678  7672 1.2984e+07  671  578          - 1.2981e+07      -   5.4  315s
  7682  7675 1.2983e+07  460  532          - 1.2981e+07      -   5.4  321s
  7686  7678 1.2983e+07  507  556          - 1.2981e+07      -   5.4  328s
  7688  7679 1.2984e+07  666  588          - 1.2981e+07      -   5.4  330s
  7692  7682 1.2982e+07  208  579          - 1.2981e+07      -   5.4  335s
  7697  7685 1.2981e+07   10  582          - 1.2981e+07      -   5.4  341s
  7702  7688 1.2981e+07   96  595          - 1.2981e+07      -   5.4  346s
  7705  7690 1.2982e+07   76  612          - 1.2981e+07      -   5.4  350s
  7709  7693 1.2982e+07  275  620          - 1.2981e+07      -   5.4  355s
  7711  7694 1.2984e+07  702  611          - 1.2981e+07      -   5.4  360s
  7713  7696 1.2982e+07  391  614          - 1.2981e+07      -   5.4  365s
  7716  7698 1.2983e+07  477  619          - 1.2981e+07      -   5.4  370s
  7718  7699 1.2984e+07  679  620          - 1.2981e+07      -   5.4  375s
  7724  7704 1.2982e+07  142  878          - 1.2981e+07      -  15.7  400s
  7725  7705 1.2983e+07  545  853          - 1.2981e+07      -  15.7  407s
  7726  7706 1.2983e+07  274  594          - 1.2981e+07      -  15.7  410s
  7732  7710 1.2982e+07  247  553          - 1.2981e+07      -  15.7  417s
  7734  7711 1.2982e+07  305  585          - 1.2981e+07      -  15.7  421s
  7736  7712 1.2984e+07  554  581          - 1.2981e+07      -  15.7  426s
  7738  7714 1.2983e+07  479  598          - 1.2981e+07      -  15.7  431s
  7740  7715 1.2981e+07   42  600          - 1.2981e+07      -  15.7  436s
  7742  7716 1.2982e+07  487  600          - 1.2981e+07      -  15.7  441s
  7744  7718 1.2983e+07  620  608          - 1.2981e+07      -  15.7  446s
  7746  7719 1.2981e+07   94  599          - 1.2981e+07      -  15.7  450s
  7748  7720 1.2984e+07  453  594          - 1.2981e+07      -  15.7  456s
  7750  7722 1.2984e+07  527  551          - 1.2981e+07      -  15.7  478s
  7751  7722 1.2983e+07  706  551          - 1.2981e+07      -  15.7  493s
H 7752  7339                    1.411845e+07 1.2981e+07  8.05%  35.8  500s
H 7754  6975                    1.411802e+07 1.2981e+07  8.05%  35.8  503s
H 7757  6625                    1.411801e+07 1.2981e+07  8.05%  35.8  503s
  7758  6633 1.2982e+07   22  554 1.4118e+07 1.2981e+07  8.05%  35.8  505s
  7774  6708 1.2982e+07   24  553 1.4118e+07 1.2981e+07  8.05%  35.9  512s
  7846  6780 1.2982e+07   29  549 1.4118e+07 1.2981e+07  8.05%  35.7  523s
  7942  6882 1.2982e+07   35  533 1.4118e+07 1.2981e+07  8.05%  35.4  626s
H 7986  6535                    1.411131e+07 1.2981e+07  8.01%  35.3  626s
  8076  6845 1.2982e+07   42  519 1.4111e+07 1.2981e+07  8.01%  35.0  639s
H 8416  6885                    1.410721e+07 1.2981e+07  7.98%  34.2  655s
H 8485  6563                    1.410407e+07 1.2981e+07  7.96%  34.0  655s
H 8555  6255                    1.345526e+07 1.2981e+07  3.52%  33.8  655s
H 8676  5945                    1.345512e+07 1.2981e+07  3.52%  33.5  655s
H 8833  5637                    1.345362e+07 1.2981e+07  3.51%  33.2  656s

Cutting planes:
  Learned: 3
  Gomory: 419
  Cover: 384
  Implied bound: 139
  Projected implied bound: 50
  MIR: 1506
  Mixing: 10
  Flow cover: 862
  Network: 1
  RLT: 39
  Relax-and-lift: 314

Explored 8884 nodes (293730 simplex iterations) in 656.25 seconds (359.21 work units)
Thread count was 8 (of 8 available processors)

Solution count 9: 1.34536e+07 1.34551e+07 1.34553e+07 ... 1.41184e+07

Optimal solution found (tolerance 8.00e-02)
Best objective 1.345361602086e+07, best bound 1.298143899662e+07, gap 3.5097%

